<number of tasks>
30

<cycle time>
41

<task times>
1 8
2 7
3 19
4 10
5 2
6 6
7 14
8 10
9 1
10 4
11 14
12 15
13 5
14 12
15 9
16 10
17 2
18 10
19 18
20 16
21 21
22 14
23 16
24 7
25 17
26 9
27 25
28 7
29 14
30 2

<task process alternatives>
1: 7,15 ; 10,8
2: 6,15 ; 9,8
3: 16,15 ; 23,8
4: 8,15 ; 12,8
5: 2,15 ; 3,8
6: 5,15 ; 8,8
7: 12,15 ; 17,8
8: 8,15 ; 12,8
9: 1,15 ; 2,8
10: 4,15 ; 5,8
11: 12,15 ; 17,8
12: 12,15 ; 18,8
13: 4,15 ; 6,8
14: 10,15 ; 15,8
15: 8,15 ; 11,8
16: 8,15 ; 12,8
17: 2,15 ; 3,8
18: 8,15 ; 12,8
19: 15,15 ; 22,8
20: 13,15 ; 20,8
21: 17,15 ; 26,8
22: 12,15 ; 17,8
23: 13,15 ; 20,8
24: 6,15 ; 9,8
25: 14,15 ; 21,8
26: 8,15 ; 11,8
27: 20,15 ; 30,8
28: 6,15 ; 9,8
29: 12,15 ; 17,8
30: 2,15 ; 3,8

<incompatible tasks>
17,22
4,23
9,28
29,18

<precedence relations>
16,20
26,27
12,13
21,22
3,16
22,23
8,9
17,18
2,11
27,28
25,26
9,26
13,14
10,24
18,19
5,6
14,15
23,27
1,5
6,7
24,25
15,22
4,7
20,21
29,30
20,24
3,17
14,20
1,4
2,12
27,29
7,8

<number of task attributes>
1

<task attribute values>
1,1:70
2,1:22
4,1:69
5,1:91
6,1:7
7,1:2
8,1:80
9,1:48
10,1:1
11,1:22
12,1:19
13,1:6
17,1:1
19,1:51
20,1:10
21,1:1
22,1:15
23,1:32
24,1:18
25,1:29
26,1:3
27,1:7
28,1:36
29,1:10
30,1:2

<attribute bounds per station>
1:100

<linked tasks>
1,17
22,25
29,30

<incompatible tasks>
1,20
1,22
2,8
5,28
6,22
8,18
8,25
12,17
13,22
14,24
14,27
14,30
17,20
18,25
19,22
23,28
24,29

<optimal SALBP-1 value>
8

<rand seed>
236278236

<end>
